; benchmark generated from python API
(set-info :status unknown)
(declare-datatypes ((RealState 0)) (((RMk1 (rval1 Real)) (RMk2 (rval2 Real)))))
 (declare-fun xuscore2dollarskuscore28 () Real)
(declare-fun t19uscore0dollarskuscore2 () Real)
(declare-fun yuscore2dollarskuscore36 () Real)
(declare-fun stuscore2dollarskuscore36 () Real)
(assert
 (let (($x204 (exists ((ts19uscore2_st RealState) (val!115 Real) )(let ((?x174 (* 2.0 xuscore2dollarskuscore28)))
 (let (($x238 (>= (+ (* (- 2.0) t19uscore0dollarskuscore2) yuscore2dollarskuscore36) (- 5.0 (+ (* 2.0 t19uscore0dollarskuscore2) ?x174)))))
 (let (($x161 (= stuscore2dollarskuscore36 1.0)))
 (let (($x236 (or $x161 $x238)))
 (let (($x245 (>= yuscore2dollarskuscore36 (- 5.0 ?x174))))
 (let (($x205 (<= yuscore2dollarskuscore36 12.0)))
 (let (($x83 (>= yuscore2dollarskuscore36 1.0)))
 (let (($x172 (= stuscore2dollarskuscore36 2.0)))
 (let (($x22 (< yuscore2dollarskuscore36 5.0)))
 (let (($x185 (>= t19uscore0dollarskuscore2 0.0)))
 (let (($x192 (and (<= 0.0 (rval2 ts19uscore2_st)) (<= (rval2 ts19uscore2_st) t19uscore0dollarskuscore2))))
 (let (($x206 (=> $x192 (>= (+ (* (- 2.0) (rval2 ts19uscore2_st)) yuscore2dollarskuscore36) 5.0))))
 (let (($x134 (= stuscore2dollarskuscore36 3.0)))
 (let (($x110 (and (and (and (and (and (and $x134 $x206) $x185) $x22) $x172) $x83) $x205)))
 (let (($x94 (not (= ts19uscore2_st (RMk1 val!115)))))
 (and $x94 (=> (and $x110 $x245) $x236))))))))))))))))))
 ))
 (not $x204)))
(check-sat)
